PROBLEM NAME: 	berlin52-TTP_trivialized
KNAPSACK DATA TYPE: bounded strongly corr
DIMENSION:	4
NUMBER OF ITEMS: 	6
CAPACITY OF KNAPSACK: 	3
MIN SPEED: 	0.1
MAX SPEED: 	1
RENTING RATIO: 	0.56
EDGE_WEIGHT_TYPE:	CEIL_2D
NODE_COORD_SECTION	(INDEX, X, Y):
1	5.0	10.0
2	25.0	30.0
3	10.0	25.0
4	15.0	30.0
ITEMS SECTION	(INDEX, PROFIT, WEIGHT, ASSIGNED NODE NUMBER):
1	100	3	3
2	40	1	4
3	40	1	1
4	20	2	2
5	30	3	2
6	20  2	1
